p cnf 686 490
c p distribution  0.875 0.125
c p distribution  0.875 0.125
c p distribution  0.875 0.125
c p distribution  0.875 0.125
c p distribution  0.875 0.125
c p distribution  0.875 0.125
c p distribution  0.875 0.125
c p distribution  0.875 0.125
c p distribution  0.875 0.125
c p distribution  0.875 0.125
c p distribution  0.875 0.125
c p distribution  0.875 0.125
c p distribution  0.875 0.125
c p distribution  0.875 0.125
c p distribution  0.875 0.125
c p distribution  0.875 0.125
c p distribution  0.875 0.125
c p distribution  0.875 0.125
c p distribution  0.875 0.125
c p distribution  0.875 0.125
c p distribution  0.875 0.125
c p distribution  0.875 0.125
c p distribution  0.875 0.125
c p distribution  0.875 0.125
c p distribution  0.875 0.125
c p distribution  0.875 0.125
c p distribution  0.875 0.125
c p distribution  0.875 0.125
c p distribution  0.875 0.125
c p distribution  0.875 0.125
c p distribution  0.875 0.125
c p distribution  0.875 0.125
c p distribution  0.875 0.125
c p distribution  0.875 0.125
c p distribution  0.875 0.125
c p distribution  0.875 0.125
c p distribution  0.875 0.125
c p distribution  0.875 0.125
c p distribution  0.875 0.125
c p distribution  0.875 0.125
c p distribution  0.875 0.125
c p distribution  0.875 0.125
c p distribution  0.875 0.125
c p distribution  0.875 0.125
c p distribution  0.875 0.125
c p distribution  0.875 0.125
c p distribution  0.875 0.125
c p distribution  0.875 0.125
c p distribution  0.875 0.125
c p distribution  0.875 0.125
c p distribution  0.875 0.125
c p distribution  0.875 0.125
c p distribution  0.875 0.125
c p distribution  0.875 0.125
c p distribution  0.875 0.125
c p distribution  0.875 0.125
c p distribution  0.875 0.125
c p distribution  0.875 0.125
c p distribution  0.875 0.125
c p distribution  0.875 0.125
c p distribution  0.875 0.125
c p distribution  0.875 0.125
c p distribution  0.875 0.125
c p distribution  0.875 0.125
c p distribution  0.875 0.125
c p distribution  0.875 0.125
c p distribution  0.875 0.125
c p distribution  0.875 0.125
c p distribution  0.875 0.125
c p distribution  0.875 0.125
c p distribution  0.875 0.125
c p distribution  0.875 0.125
c p distribution  0.875 0.125
c p distribution  0.875 0.125
c p distribution  0.875 0.125
c p distribution  0.875 0.125
c p distribution  0.875 0.125
c p distribution  0.875 0.125
c p distribution  0.875 0.125
c p distribution  0.875 0.125
c p distribution  0.875 0.125
c p distribution  0.875 0.125
c p distribution  0.875 0.125
c p distribution  0.875 0.125
c p distribution  0.875 0.125
c p distribution  0.875 0.125
c p distribution  0.875 0.125
c p distribution  0.875 0.125
c p distribution  0.875 0.125
c p distribution  0.875 0.125
c p distribution  0.875 0.125
c p distribution  0.875 0.125
c p distribution  0.875 0.125
c p distribution  0.875 0.125
c p distribution  0.875 0.125
c p distribution  0.875 0.125
c p distribution  0.875 0.125
c p distribution  0.875 0.125
c p distribution  0.875 0.125
c p distribution  0.875 0.125
c p distribution  0.875 0.125
c p distribution  0.875 0.125
c p distribution  0.875 0.125
c p distribution  0.875 0.125
c p distribution  0.875 0.125
c p distribution  0.875 0.125
c p distribution  0.875 0.125
c p distribution  0.875 0.125
c p distribution  0.875 0.125
c p distribution  0.875 0.125
c p distribution  0.875 0.125
c p distribution  0.875 0.125
c p distribution  0.875 0.125
c p distribution  0.875 0.125
c p distribution  0.875 0.125
c p distribution  0.875 0.125
c p distribution  0.875 0.125
c p distribution  0.875 0.125
c p distribution  0.875 0.125
c p distribution  0.875 0.125
c p distribution  0.875 0.125
c p distribution  0.875 0.125
c p distribution  0.875 0.125
c p distribution  0.875 0.125
c p distribution  0.875 0.125
c p distribution  0.875 0.125
c p distribution  0.875 0.125
c p distribution  0.875 0.125
c p distribution  0.875 0.125
c p distribution  0.875 0.125
c p distribution  0.875 0.125
c p distribution  0.875 0.125
c p distribution  0.875 0.125
c p distribution  0.875 0.125
c p distribution  0.875 0.125
c p distribution  0.875 0.125
c p distribution  0.875 0.125
c p distribution  0.875 0.125
c p distribution  0.875 0.125
c p distribution  0.875 0.125
c p distribution  0.875 0.125
c p distribution  0.875 0.125
c p distribution  0.875 0.125
c p distribution  0.875 0.125
c p distribution  0.875 0.125
c p distribution  0.875 0.125
c p distribution  0.875 0.125
c p distribution  0.875 0.125
c p distribution  0.875 0.125
c p distribution  0.875 0.125
c p distribution  0.875 0.125
c p distribution  0.875 0.125
c p distribution  0.875 0.125
c p distribution  0.875 0.125
c p distribution  0.875 0.125
c p distribution  0.875 0.125
c p distribution  0.875 0.125
c p distribution  0.875 0.125
c p distribution  0.875 0.125
c p distribution  0.875 0.125
c p distribution  0.875 0.125
c p distribution  0.875 0.125
c p distribution  0.875 0.125
c p distribution  0.875 0.125
c p distribution  0.875 0.125
c p distribution  0.875 0.125
c p distribution  0.875 0.125
c p distribution  0.875 0.125
c p distribution  0.875 0.125
c p distribution  0.875 0.125
c p distribution  0.875 0.125
c p distribution  0.875 0.125
c p distribution  0.875 0.125
c p distribution  0.875 0.125
c p distribution  0.875 0.125
c p distribution  0.875 0.125
c p distribution  0.875 0.125
c p distribution  0.875 0.125
c p distribution  0.875 0.125
c p distribution  0.875 0.125
c p distribution  0.875 0.125
c p distribution  0.875 0.125
c p distribution  0.875 0.125
c p distribution  0.875 0.125
c p distribution  0.875 0.125
c p distribution  0.875 0.125
c p distribution  0.875 0.125
c p distribution  0.875 0.125
c p distribution  0.875 0.125
c p distribution  0.875 0.125
c p distribution  0.875 0.125
c p distribution  0.875 0.125
c p distribution  0.875 0.125
c p distribution  0.875 0.125
c p distribution  0.875 0.125
c p distribution  0.875 0.125
c p distribution  0.875 0.125
c p distribution  0.875 0.125
c p distribution  0.875 0.125
c p distribution  0.875 0.125
c p distribution  0.875 0.125
c p distribution  0.875 0.125
c p distribution  0.875 0.125
c p distribution  0.875 0.125
c p distribution  0.875 0.125
c p distribution  0.875 0.125
c p distribution  0.875 0.125
c p distribution  0.875 0.125
c p distribution  0.875 0.125
c p distribution  0.875 0.125
c p distribution  0.875 0.125
c p distribution  0.875 0.125
c p distribution  0.875 0.125
c p distribution  0.875 0.125
c p distribution  0.875 0.125
c p distribution  0.875 0.125
c p distribution  0.875 0.125
c p distribution  0.875 0.125
c p distribution  0.875 0.125
c p distribution  0.875 0.125
c p distribution  0.875 0.125
c p distribution  0.875 0.125
c p distribution  0.875 0.125
c p distribution  0.875 0.125
c p distribution  0.875 0.125
c p distribution  0.875 0.125
c p distribution  0.875 0.125
c p distribution  0.875 0.125
c p distribution  0.875 0.125
c p distribution  0.875 0.125
c p distribution  0.875 0.125
c p distribution  0.875 0.125
c p distribution  0.875 0.125
c p distribution  0.875 0.125
c p distribution  0.875 0.125
c p distribution  0.875 0.125
c p distribution  0.875 0.125
c p distribution  0.875 0.125
c p distribution  0.875 0.125
c p distribution  0.875 0.125
c p distribution  0.875 0.125
c p distribution  0.875 0.125
c p distribution  0.875 0.125
c p distribution  0.875 0.125
595 0
-510 0
565 -684 -1 0
684 -565 -1 0
503 -498 -3 0
498 -503 -3 0
521 -509 -5 0
509 -521 -5 0
497 -511 -7 0
511 -497 -7 0
513 -665 -9 0
665 -513 -9 0
524 -491 -11 0
491 -524 -11 0
679 -675 -13 0
675 -679 -13 0
540 -504 -15 0
504 -540 -15 0
553 -531 -17 0
531 -553 -17 0
669 -678 -19 0
678 -669 -19 0
593 -641 -21 0
641 -593 -21 0
511 -602 -23 0
602 -511 -23 0
568 -602 -25 0
602 -568 -25 0
681 -507 -27 0
507 -681 -27 0
560 -516 -29 0
516 -560 -29 0
512 -563 -31 0
563 -512 -31 0
683 -527 -33 0
527 -683 -33 0
634 -509 -35 0
509 -634 -35 0
686 -637 -37 0
637 -686 -37 0
521 -580 -39 0
580 -521 -39 0
507 -500 -41 0
500 -507 -41 0
505 -539 -43 0
539 -505 -43 0
572 -556 -45 0
556 -572 -45 0
512 -547 -47 0
547 -512 -47 0
630 -559 -49 0
559 -630 -49 0
565 -684 -51 0
684 -565 -51 0
605 -613 -53 0
613 -605 -53 0
657 -495 -55 0
495 -657 -55 0
642 -593 -57 0
593 -642 -57 0
594 -536 -59 0
536 -594 -59 0
585 -617 -61 0
617 -585 -61 0
548 -677 -63 0
677 -548 -63 0
686 -534 -65 0
534 -686 -65 0
615 -592 -67 0
592 -615 -67 0
597 -523 -69 0
523 -597 -69 0
559 -557 -71 0
557 -559 -71 0
562 -514 -73 0
514 -562 -73 0
594 -623 -75 0
623 -594 -75 0
584 -581 -77 0
581 -584 -77 0
512 -666 -79 0
666 -512 -79 0
544 -602 -81 0
602 -544 -81 0
513 -665 -83 0
665 -513 -83 0
655 -589 -85 0
589 -655 -85 0
668 -619 -87 0
619 -668 -87 0
612 -648 -89 0
648 -612 -89 0
606 -665 -91 0
665 -606 -91 0
661 -579 -93 0
579 -661 -93 0
594 -674 -95 0
674 -594 -95 0
623 -617 -97 0
617 -623 -97 0
657 -647 -99 0
647 -657 -99 0
648 -545 -101 0
545 -648 -101 0
563 -518 -103 0
518 -563 -103 0
500 -537 -105 0
537 -500 -105 0
662 -541 -107 0
541 -662 -107 0
603 -599 -109 0
599 -603 -109 0
587 -612 -111 0
612 -587 -111 0
652 -550 -113 0
550 -652 -113 0
565 -616 -115 0
616 -565 -115 0
646 -586 -117 0
586 -646 -117 0
539 -561 -119 0
561 -539 -119 0
505 -512 -121 0
512 -505 -121 0
530 -660 -123 0
660 -530 -123 0
683 -520 -125 0
520 -683 -125 0
648 -670 -127 0
670 -648 -127 0
562 -503 -129 0
503 -562 -129 0
548 -552 -131 0
552 -548 -131 0
638 -556 -133 0
556 -638 -133 0
522 -546 -135 0
546 -522 -135 0
596 -538 -137 0
538 -596 -137 0
539 -491 -139 0
491 -539 -139 0
589 -515 -141 0
515 -589 -141 0
578 -514 -143 0
514 -578 -143 0
584 -508 -145 0
508 -584 -145 0
667 -551 -147 0
551 -667 -147 0
680 -682 -149 0
682 -680 -149 0
616 -491 -151 0
491 -616 -151 0
572 -556 -153 0
556 -572 -153 0
532 -604 -155 0
604 -532 -155 0
561 -490 -157 0
490 -561 -157 0
529 -601 -159 0
601 -529 -159 0
505 -666 -161 0
666 -505 -161 0
584 -581 -163 0
581 -584 -163 0
590 -629 -165 0
629 -590 -165 0
636 -514 -167 0
514 -636 -167 0
557 -622 -169 0
622 -557 -169 0
568 -644 -171 0
644 -568 -171 0
651 -581 -173 0
581 -651 -173 0
510 -649 -175 0
649 -510 -175 0
590 -672 -177 0
672 -590 -177 0
497 -544 -179 0
544 -497 -179 0
511 -611 -181 0
611 -511 -181 0
499 -593 -183 0
593 -499 -183 0
614 -556 -185 0
556 -614 -185 0
571 -637 -187 0
637 -571 -187 0
550 -504 -189 0
504 -550 -189 0
583 -586 -191 0
586 -583 -191 0
596 -539 -193 0
539 -596 -193 0
576 -531 -195 0
531 -576 -195 0
626 -634 -197 0
634 -626 -197 0
684 -676 -199 0
676 -684 -199 0
624 -526 -201 0
526 -624 -201 0
606 -663 -203 0
663 -606 -203 0
633 -686 -205 0
686 -633 -205 0
627 -650 -207 0
650 -627 -207 0
574 -491 -209 0
491 -574 -209 0
569 -677 -211 0
677 -569 -211 0
511 -636 -213 0
636 -511 -213 0
632 -576 -215 0
576 -632 -215 0
604 -570 -217 0
570 -604 -217 0
528 -659 -219 0
659 -528 -219 0
514 -620 -221 0
620 -514 -221 0
493 -613 -223 0
613 -493 -223 0
655 -645 -225 0
645 -655 -225 0
562 -654 -227 0
654 -562 -227 0
525 -617 -229 0
617 -525 -229 0
502 -499 -231 0
499 -502 -231 0
652 -676 -233 0
676 -652 -233 0
657 -613 -235 0
613 -657 -235 0
533 -524 -237 0
524 -533 -237 0
497 -568 -239 0
568 -497 -239 0
505 -541 -241 0
541 -505 -241 0
606 -512 -243 0
512 -606 -243 0
536 -531 -245 0
531 -536 -245 0
610 -647 -247 0
647 -610 -247 0
626 -531 -249 0
531 -626 -249 0
494 -616 -251 0
616 -494 -251 0
542 -489 -253 0
489 -542 -253 0
644 -672 -255 0
672 -644 -255 0
529 -509 -257 0
509 -529 -257 0
598 -596 -259 0
596 -598 -259 0
518 -627 -261 0
627 -518 -261 0
663 -639 -263 0
639 -663 -263 0
608 -524 -265 0
524 -608 -265 0
568 -611 -267 0
611 -568 -267 0
595 -573 -269 0
573 -595 -269 0
650 -508 -271 0
508 -650 -271 0
561 -581 -273 0
581 -561 -273 0
652 -665 -275 0
665 -652 -275 0
665 -620 -277 0
620 -665 -277 0
638 -660 -279 0
660 -638 -279 0
615 -517 -281 0
517 -615 -281 0
600 -628 -283 0
628 -600 -283 0
662 -658 -285 0
658 -662 -285 0
559 -649 -287 0
649 -559 -287 0
544 -611 -289 0
611 -544 -289 0
625 -532 -291 0
532 -625 -291 0
656 -637 -293 0
637 -656 -293 0
635 -573 -295 0
573 -635 -295 0
608 -554 -297 0
554 -608 -297 0
579 -640 -299 0
640 -579 -299 0
614 -556 -301 0
556 -614 -301 0
607 -514 -303 0
514 -607 -303 0
567 -499 -305 0
499 -567 -305 0
673 -609 -307 0
609 -673 -307 0
619 -580 -309 0
580 -619 -309 0
678 -571 -311 0
571 -678 -311 0
641 -675 -313 0
675 -641 -313 0
573 -595 -315 0
595 -573 -315 0
664 -501 -317 0
501 -664 -317 0
628 -501 -319 0
501 -628 -319 0
575 -636 -321 0
636 -575 -321 0
514 -670 -323 0
670 -514 -323 0
621 -592 -325 0
592 -621 -325 0
576 -622 -327 0
622 -576 -327 0
517 -581 -329 0
581 -517 -329 0
659 -501 -331 0
501 -659 -331 0
619 -660 -333 0
660 -619 -333 0
591 -625 -335 0
625 -591 -335 0
566 -662 -337 0
662 -566 -337 0
558 -531 -339 0
531 -558 -339 0
575 -514 -341 0
514 -575 -341 0
631 -643 -343 0
643 -631 -343 0
596 -528 -345 0
528 -596 -345 0
565 -671 -347 0
671 -565 -347 0
556 -500 -349 0
500 -556 -349 0
607 -514 -351 0
514 -607 -351 0
519 -616 -353 0
616 -519 -353 0
515 -609 -355 0
609 -515 -355 0
599 -679 -357 0
679 -599 -357 0
565 -684 -359 0
684 -565 -359 0
609 -516 -361 0
516 -609 -361 0
500 -577 -363 0
577 -500 -363 0
589 -581 -365 0
581 -589 -365 0
576 -527 -367 0
527 -576 -367 0
506 -645 -369 0
645 -506 -369 0
526 -605 -371 0
605 -526 -371 0
590 -552 -373 0
552 -590 -373 0
557 -542 -375 0
542 -557 -375 0
626 -622 -377 0
622 -626 -377 0
555 -679 -379 0
679 -555 -379 0
606 -681 -381 0
681 -606 -381 0
544 -514 -383 0
514 -544 -383 0
572 -625 -385 0
625 -572 -385 0
496 -504 -387 0
504 -496 -387 0
514 -665 -389 0
665 -514 -389 0
521 -586 -391 0
586 -521 -391 0
531 -665 -393 0
665 -531 -393 0
641 -603 -395 0
603 -641 -395 0
673 -579 -397 0
579 -673 -397 0
503 -667 -399 0
667 -503 -399 0
589 -639 -401 0
639 -589 -401 0
606 -595 -403 0
595 -606 -403 0
656 -537 -405 0
537 -656 -405 0
523 -582 -407 0
582 -523 -407 0
531 -513 -409 0
513 -531 -409 0
566 -541 -411 0
541 -566 -411 0
674 -525 -413 0
525 -674 -413 0
631 -658 -415 0
658 -631 -415 0
510 -626 -417 0
626 -510 -417 0
563 -581 -419 0
581 -563 -419 0
626 -634 -421 0
634 -626 -421 0
503 -532 -423 0
532 -503 -423 0
560 -609 -425 0
609 -560 -425 0
518 -618 -427 0
618 -518 -427 0
661 -515 -429 0
515 -661 -429 0
630 -558 -431 0
558 -630 -431 0
489 -647 -433 0
647 -489 -433 0
635 -614 -435 0
614 -635 -435 0
623 -525 -437 0
525 -623 -437 0
561 -490 -439 0
490 -561 -439 0
632 -531 -441 0
531 -632 -441 0
529 -588 -443 0
588 -529 -443 0
686 -535 -445 0
535 -686 -445 0
530 -644 -447 0
644 -530 -447 0
492 -523 -449 0
523 -492 -449 0
502 -672 -451 0
672 -502 -451 0
566 -638 -453 0
638 -566 -453 0
645 -666 -455 0
666 -645 -455 0
564 -558 -457 0
558 -564 -457 0
587 -647 -459 0
647 -587 -459 0
543 -674 -461 0
674 -543 -461 0
520 -626 -463 0
626 -520 -463 0
621 -538 -465 0
538 -621 -465 0
680 -664 -467 0
664 -680 -467 0
491 -546 -469 0
546 -491 -469 0
515 -556 -471 0
556 -515 -471 0
643 -596 -473 0
596 -643 -473 0
530 -660 -475 0
660 -530 -475 0
603 -599 -477 0
599 -603 -477 0
628 -659 -479 0
659 -628 -479 0
574 -549 -481 0
549 -574 -481 0
535 -667 -483 0
667 -535 -483 0
597 -518 -485 0
518 -597 -485 0
685 -604 -487 0
604 -685 -487 0

